c *********************************
c * Circuit generated by BenCGen
c *
c * CarrySaveAdder_59_59_59_59_60
c *
c * Ports with 1 gate(s): 2
c * Ports with 2 gate(s): 296
c * Total gates: 298
c *********************************
p cnf 475 1010
1 298 0
-1 -298 0
1 -297 0
298 -297 0
-1 -298 297 0
297 -237 0
-297 237 0
1 60 -299 0
-1 60 299 0
1 -60 299 0
-1 -60 -299 0
299 119 -178 0
-299 119 178 0
299 -119 178 0
-299 -119 -178 0
119 -300 0
299 -300 0
-119 -299 300 0
60 -301 0
1 -301 0
-60 -1 301 0
-300 238 0
-301 238 0
300 301 -238 0
2 61 -302 0
-2 61 302 0
2 -61 302 0
-2 -61 -302 0
302 120 -179 0
-302 120 179 0
302 -120 179 0
-302 -120 -179 0
120 -303 0
302 -303 0
-120 -302 303 0
61 -304 0
2 -304 0
-61 -2 304 0
-303 239 0
-304 239 0
303 304 -239 0
3 62 -305 0
-3 62 305 0
3 -62 305 0
-3 -62 -305 0
305 121 -180 0
-305 121 180 0
305 -121 180 0
-305 -121 -180 0
121 -306 0
305 -306 0
-121 -305 306 0
62 -307 0
3 -307 0
-62 -3 307 0
-306 240 0
-307 240 0
306 307 -240 0
4 63 -308 0
-4 63 308 0
4 -63 308 0
-4 -63 -308 0
308 122 -181 0
-308 122 181 0
308 -122 181 0
-308 -122 -181 0
122 -309 0
308 -309 0
-122 -308 309 0
63 -310 0
4 -310 0
-63 -4 310 0
-309 241 0
-310 241 0
309 310 -241 0
5 64 -311 0
-5 64 311 0
5 -64 311 0
-5 -64 -311 0
311 123 -182 0
-311 123 182 0
311 -123 182 0
-311 -123 -182 0
123 -312 0
311 -312 0
-123 -311 312 0
64 -313 0
5 -313 0
-64 -5 313 0
-312 242 0
-313 242 0
312 313 -242 0
6 65 -314 0
-6 65 314 0
6 -65 314 0
-6 -65 -314 0
314 124 -183 0
-314 124 183 0
314 -124 183 0
-314 -124 -183 0
124 -315 0
314 -315 0
-124 -314 315 0
65 -316 0
6 -316 0
-65 -6 316 0
-315 243 0
-316 243 0
315 316 -243 0
7 66 -317 0
-7 66 317 0
7 -66 317 0
-7 -66 -317 0
317 125 -184 0
-317 125 184 0
317 -125 184 0
-317 -125 -184 0
125 -318 0
317 -318 0
-125 -317 318 0
66 -319 0
7 -319 0
-66 -7 319 0
-318 244 0
-319 244 0
318 319 -244 0
8 67 -320 0
-8 67 320 0
8 -67 320 0
-8 -67 -320 0
320 126 -185 0
-320 126 185 0
320 -126 185 0
-320 -126 -185 0
126 -321 0
320 -321 0
-126 -320 321 0
67 -322 0
8 -322 0
-67 -8 322 0
-321 245 0
-322 245 0
321 322 -245 0
9 68 -323 0
-9 68 323 0
9 -68 323 0
-9 -68 -323 0
323 127 -186 0
-323 127 186 0
323 -127 186 0
-323 -127 -186 0
127 -324 0
323 -324 0
-127 -323 324 0
68 -325 0
9 -325 0
-68 -9 325 0
-324 246 0
-325 246 0
324 325 -246 0
10 69 -326 0
-10 69 326 0
10 -69 326 0
-10 -69 -326 0
326 128 -187 0
-326 128 187 0
326 -128 187 0
-326 -128 -187 0
128 -327 0
326 -327 0
-128 -326 327 0
69 -328 0
10 -328 0
-69 -10 328 0
-327 247 0
-328 247 0
327 328 -247 0
11 70 -329 0
-11 70 329 0
11 -70 329 0
-11 -70 -329 0
329 129 -188 0
-329 129 188 0
329 -129 188 0
-329 -129 -188 0
129 -330 0
329 -330 0
-129 -329 330 0
70 -331 0
11 -331 0
-70 -11 331 0
-330 248 0
-331 248 0
330 331 -248 0
12 71 -332 0
-12 71 332 0
12 -71 332 0
-12 -71 -332 0
332 130 -189 0
-332 130 189 0
332 -130 189 0
-332 -130 -189 0
130 -333 0
332 -333 0
-130 -332 333 0
71 -334 0
12 -334 0
-71 -12 334 0
-333 249 0
-334 249 0
333 334 -249 0
13 72 -335 0
-13 72 335 0
13 -72 335 0
-13 -72 -335 0
335 131 -190 0
-335 131 190 0
335 -131 190 0
-335 -131 -190 0
131 -336 0
335 -336 0
-131 -335 336 0
72 -337 0
13 -337 0
-72 -13 337 0
-336 250 0
-337 250 0
336 337 -250 0
14 73 -338 0
-14 73 338 0
14 -73 338 0
-14 -73 -338 0
338 132 -191 0
-338 132 191 0
338 -132 191 0
-338 -132 -191 0
132 -339 0
338 -339 0
-132 -338 339 0
73 -340 0
14 -340 0
-73 -14 340 0
-339 251 0
-340 251 0
339 340 -251 0
15 74 -341 0
-15 74 341 0
15 -74 341 0
-15 -74 -341 0
341 133 -192 0
-341 133 192 0
341 -133 192 0
-341 -133 -192 0
133 -342 0
341 -342 0
-133 -341 342 0
74 -343 0
15 -343 0
-74 -15 343 0
-342 252 0
-343 252 0
342 343 -252 0
16 75 -344 0
-16 75 344 0
16 -75 344 0
-16 -75 -344 0
344 134 -193 0
-344 134 193 0
344 -134 193 0
-344 -134 -193 0
134 -345 0
344 -345 0
-134 -344 345 0
75 -346 0
16 -346 0
-75 -16 346 0
-345 253 0
-346 253 0
345 346 -253 0
17 76 -347 0
-17 76 347 0
17 -76 347 0
-17 -76 -347 0
347 135 -194 0
-347 135 194 0
347 -135 194 0
-347 -135 -194 0
135 -348 0
347 -348 0
-135 -347 348 0
76 -349 0
17 -349 0
-76 -17 349 0
-348 254 0
-349 254 0
348 349 -254 0
18 77 -350 0
-18 77 350 0
18 -77 350 0
-18 -77 -350 0
350 136 -195 0
-350 136 195 0
350 -136 195 0
-350 -136 -195 0
136 -351 0
350 -351 0
-136 -350 351 0
77 -352 0
18 -352 0
-77 -18 352 0
-351 255 0
-352 255 0
351 352 -255 0
19 78 -353 0
-19 78 353 0
19 -78 353 0
-19 -78 -353 0
353 137 -196 0
-353 137 196 0
353 -137 196 0
-353 -137 -196 0
137 -354 0
353 -354 0
-137 -353 354 0
78 -355 0
19 -355 0
-78 -19 355 0
-354 256 0
-355 256 0
354 355 -256 0
20 79 -356 0
-20 79 356 0
20 -79 356 0
-20 -79 -356 0
356 138 -197 0
-356 138 197 0
356 -138 197 0
-356 -138 -197 0
138 -357 0
356 -357 0
-138 -356 357 0
79 -358 0
20 -358 0
-79 -20 358 0
-357 257 0
-358 257 0
357 358 -257 0
21 80 -359 0
-21 80 359 0
21 -80 359 0
-21 -80 -359 0
359 139 -198 0
-359 139 198 0
359 -139 198 0
-359 -139 -198 0
139 -360 0
359 -360 0
-139 -359 360 0
80 -361 0
21 -361 0
-80 -21 361 0
-360 258 0
-361 258 0
360 361 -258 0
22 81 -362 0
-22 81 362 0
22 -81 362 0
-22 -81 -362 0
362 140 -199 0
-362 140 199 0
362 -140 199 0
-362 -140 -199 0
140 -363 0
362 -363 0
-140 -362 363 0
81 -364 0
22 -364 0
-81 -22 364 0
-363 259 0
-364 259 0
363 364 -259 0
23 82 -365 0
-23 82 365 0
23 -82 365 0
-23 -82 -365 0
365 141 -200 0
-365 141 200 0
365 -141 200 0
-365 -141 -200 0
141 -366 0
365 -366 0
-141 -365 366 0
82 -367 0
23 -367 0
-82 -23 367 0
-366 260 0
-367 260 0
366 367 -260 0
24 83 -368 0
-24 83 368 0
24 -83 368 0
-24 -83 -368 0
368 142 -201 0
-368 142 201 0
368 -142 201 0
-368 -142 -201 0
142 -369 0
368 -369 0
-142 -368 369 0
83 -370 0
24 -370 0
-83 -24 370 0
-369 261 0
-370 261 0
369 370 -261 0
25 84 -371 0
-25 84 371 0
25 -84 371 0
-25 -84 -371 0
371 143 -202 0
-371 143 202 0
371 -143 202 0
-371 -143 -202 0
143 -372 0
371 -372 0
-143 -371 372 0
84 -373 0
25 -373 0
-84 -25 373 0
-372 262 0
-373 262 0
372 373 -262 0
26 85 -374 0
-26 85 374 0
26 -85 374 0
-26 -85 -374 0
374 144 -203 0
-374 144 203 0
374 -144 203 0
-374 -144 -203 0
144 -375 0
374 -375 0
-144 -374 375 0
85 -376 0
26 -376 0
-85 -26 376 0
-375 263 0
-376 263 0
375 376 -263 0
27 86 -377 0
-27 86 377 0
27 -86 377 0
-27 -86 -377 0
377 145 -204 0
-377 145 204 0
377 -145 204 0
-377 -145 -204 0
145 -378 0
377 -378 0
-145 -377 378 0
86 -379 0
27 -379 0
-86 -27 379 0
-378 264 0
-379 264 0
378 379 -264 0
28 87 -380 0
-28 87 380 0
28 -87 380 0
-28 -87 -380 0
380 146 -205 0
-380 146 205 0
380 -146 205 0
-380 -146 -205 0
146 -381 0
380 -381 0
-146 -380 381 0
87 -382 0
28 -382 0
-87 -28 382 0
-381 265 0
-382 265 0
381 382 -265 0
29 88 -383 0
-29 88 383 0
29 -88 383 0
-29 -88 -383 0
383 147 -206 0
-383 147 206 0
383 -147 206 0
-383 -147 -206 0
147 -384 0
383 -384 0
-147 -383 384 0
88 -385 0
29 -385 0
-88 -29 385 0
-384 266 0
-385 266 0
384 385 -266 0
30 89 -386 0
-30 89 386 0
30 -89 386 0
-30 -89 -386 0
386 148 -207 0
-386 148 207 0
386 -148 207 0
-386 -148 -207 0
148 -387 0
386 -387 0
-148 -386 387 0
89 -388 0
30 -388 0
-89 -30 388 0
-387 267 0
-388 267 0
387 388 -267 0
31 90 -389 0
-31 90 389 0
31 -90 389 0
-31 -90 -389 0
389 149 -208 0
-389 149 208 0
389 -149 208 0
-389 -149 -208 0
149 -390 0
389 -390 0
-149 -389 390 0
90 -391 0
31 -391 0
-90 -31 391 0
-390 268 0
-391 268 0
390 391 -268 0
32 91 -392 0
-32 91 392 0
32 -91 392 0
-32 -91 -392 0
392 150 -209 0
-392 150 209 0
392 -150 209 0
-392 -150 -209 0
150 -393 0
392 -393 0
-150 -392 393 0
91 -394 0
32 -394 0
-91 -32 394 0
-393 269 0
-394 269 0
393 394 -269 0
33 92 -395 0
-33 92 395 0
33 -92 395 0
-33 -92 -395 0
395 151 -210 0
-395 151 210 0
395 -151 210 0
-395 -151 -210 0
151 -396 0
395 -396 0
-151 -395 396 0
92 -397 0
33 -397 0
-92 -33 397 0
-396 270 0
-397 270 0
396 397 -270 0
34 93 -398 0
-34 93 398 0
34 -93 398 0
-34 -93 -398 0
398 152 -211 0
-398 152 211 0
398 -152 211 0
-398 -152 -211 0
152 -399 0
398 -399 0
-152 -398 399 0
93 -400 0
34 -400 0
-93 -34 400 0
-399 271 0
-400 271 0
399 400 -271 0
35 94 -401 0
-35 94 401 0
35 -94 401 0
-35 -94 -401 0
401 153 -212 0
-401 153 212 0
401 -153 212 0
-401 -153 -212 0
153 -402 0
401 -402 0
-153 -401 402 0
94 -403 0
35 -403 0
-94 -35 403 0
-402 272 0
-403 272 0
402 403 -272 0
36 95 -404 0
-36 95 404 0
36 -95 404 0
-36 -95 -404 0
404 154 -213 0
-404 154 213 0
404 -154 213 0
-404 -154 -213 0
154 -405 0
404 -405 0
-154 -404 405 0
95 -406 0
36 -406 0
-95 -36 406 0
-405 273 0
-406 273 0
405 406 -273 0
37 96 -407 0
-37 96 407 0
37 -96 407 0
-37 -96 -407 0
407 155 -214 0
-407 155 214 0
407 -155 214 0
-407 -155 -214 0
155 -408 0
407 -408 0
-155 -407 408 0
96 -409 0
37 -409 0
-96 -37 409 0
-408 274 0
-409 274 0
408 409 -274 0
38 97 -410 0
-38 97 410 0
38 -97 410 0
-38 -97 -410 0
410 156 -215 0
-410 156 215 0
410 -156 215 0
-410 -156 -215 0
156 -411 0
410 -411 0
-156 -410 411 0
97 -412 0
38 -412 0
-97 -38 412 0
-411 275 0
-412 275 0
411 412 -275 0
39 98 -413 0
-39 98 413 0
39 -98 413 0
-39 -98 -413 0
413 157 -216 0
-413 157 216 0
413 -157 216 0
-413 -157 -216 0
157 -414 0
413 -414 0
-157 -413 414 0
98 -415 0
39 -415 0
-98 -39 415 0
-414 276 0
-415 276 0
414 415 -276 0
40 99 -416 0
-40 99 416 0
40 -99 416 0
-40 -99 -416 0
416 158 -217 0
-416 158 217 0
416 -158 217 0
-416 -158 -217 0
158 -417 0
416 -417 0
-158 -416 417 0
99 -418 0
40 -418 0
-99 -40 418 0
-417 277 0
-418 277 0
417 418 -277 0
41 100 -419 0
-41 100 419 0
41 -100 419 0
-41 -100 -419 0
419 159 -218 0
-419 159 218 0
419 -159 218 0
-419 -159 -218 0
159 -420 0
419 -420 0
-159 -419 420 0
100 -421 0
41 -421 0
-100 -41 421 0
-420 278 0
-421 278 0
420 421 -278 0
42 101 -422 0
-42 101 422 0
42 -101 422 0
-42 -101 -422 0
422 160 -219 0
-422 160 219 0
422 -160 219 0
-422 -160 -219 0
160 -423 0
422 -423 0
-160 -422 423 0
101 -424 0
42 -424 0
-101 -42 424 0
-423 279 0
-424 279 0
423 424 -279 0
43 102 -425 0
-43 102 425 0
43 -102 425 0
-43 -102 -425 0
425 161 -220 0
-425 161 220 0
425 -161 220 0
-425 -161 -220 0
161 -426 0
425 -426 0
-161 -425 426 0
102 -427 0
43 -427 0
-102 -43 427 0
-426 280 0
-427 280 0
426 427 -280 0
44 103 -428 0
-44 103 428 0
44 -103 428 0
-44 -103 -428 0
428 162 -221 0
-428 162 221 0
428 -162 221 0
-428 -162 -221 0
162 -429 0
428 -429 0
-162 -428 429 0
103 -430 0
44 -430 0
-103 -44 430 0
-429 281 0
-430 281 0
429 430 -281 0
45 104 -431 0
-45 104 431 0
45 -104 431 0
-45 -104 -431 0
431 163 -222 0
-431 163 222 0
431 -163 222 0
-431 -163 -222 0
163 -432 0
431 -432 0
-163 -431 432 0
104 -433 0
45 -433 0
-104 -45 433 0
-432 282 0
-433 282 0
432 433 -282 0
46 105 -434 0
-46 105 434 0
46 -105 434 0
-46 -105 -434 0
434 164 -223 0
-434 164 223 0
434 -164 223 0
-434 -164 -223 0
164 -435 0
434 -435 0
-164 -434 435 0
105 -436 0
46 -436 0
-105 -46 436 0
-435 283 0
-436 283 0
435 436 -283 0
47 106 -437 0
-47 106 437 0
47 -106 437 0
-47 -106 -437 0
437 165 -224 0
-437 165 224 0
437 -165 224 0
-437 -165 -224 0
165 -438 0
437 -438 0
-165 -437 438 0
106 -439 0
47 -439 0
-106 -47 439 0
-438 284 0
-439 284 0
438 439 -284 0
48 107 -440 0
-48 107 440 0
48 -107 440 0
-48 -107 -440 0
440 166 -225 0
-440 166 225 0
440 -166 225 0
-440 -166 -225 0
166 -441 0
440 -441 0
-166 -440 441 0
107 -442 0
48 -442 0
-107 -48 442 0
-441 285 0
-442 285 0
441 442 -285 0
49 108 -443 0
-49 108 443 0
49 -108 443 0
-49 -108 -443 0
443 167 -226 0
-443 167 226 0
443 -167 226 0
-443 -167 -226 0
167 -444 0
443 -444 0
-167 -443 444 0
108 -445 0
49 -445 0
-108 -49 445 0
-444 286 0
-445 286 0
444 445 -286 0
50 109 -446 0
-50 109 446 0
50 -109 446 0
-50 -109 -446 0
446 168 -227 0
-446 168 227 0
446 -168 227 0
-446 -168 -227 0
168 -447 0
446 -447 0
-168 -446 447 0
109 -448 0
50 -448 0
-109 -50 448 0
-447 287 0
-448 287 0
447 448 -287 0
51 110 -449 0
-51 110 449 0
51 -110 449 0
-51 -110 -449 0
449 169 -228 0
-449 169 228 0
449 -169 228 0
-449 -169 -228 0
169 -450 0
449 -450 0
-169 -449 450 0
110 -451 0
51 -451 0
-110 -51 451 0
-450 288 0
-451 288 0
450 451 -288 0
52 111 -452 0
-52 111 452 0
52 -111 452 0
-52 -111 -452 0
452 170 -229 0
-452 170 229 0
452 -170 229 0
-452 -170 -229 0
170 -453 0
452 -453 0
-170 -452 453 0
111 -454 0
52 -454 0
-111 -52 454 0
-453 289 0
-454 289 0
453 454 -289 0
53 112 -455 0
-53 112 455 0
53 -112 455 0
-53 -112 -455 0
455 171 -230 0
-455 171 230 0
455 -171 230 0
-455 -171 -230 0
171 -456 0
455 -456 0
-171 -455 456 0
112 -457 0
53 -457 0
-112 -53 457 0
-456 290 0
-457 290 0
456 457 -290 0
54 113 -458 0
-54 113 458 0
54 -113 458 0
-54 -113 -458 0
458 172 -231 0
-458 172 231 0
458 -172 231 0
-458 -172 -231 0
172 -459 0
458 -459 0
-172 -458 459 0
113 -460 0
54 -460 0
-113 -54 460 0
-459 291 0
-460 291 0
459 460 -291 0
55 114 -461 0
-55 114 461 0
55 -114 461 0
-55 -114 -461 0
461 173 -232 0
-461 173 232 0
461 -173 232 0
-461 -173 -232 0
173 -462 0
461 -462 0
-173 -461 462 0
114 -463 0
55 -463 0
-114 -55 463 0
-462 292 0
-463 292 0
462 463 -292 0
56 115 -464 0
-56 115 464 0
56 -115 464 0
-56 -115 -464 0
464 174 -233 0
-464 174 233 0
464 -174 233 0
-464 -174 -233 0
174 -465 0
464 -465 0
-174 -464 465 0
115 -466 0
56 -466 0
-115 -56 466 0
-465 293 0
-466 293 0
465 466 -293 0
57 116 -467 0
-57 116 467 0
57 -116 467 0
-57 -116 -467 0
467 175 -234 0
-467 175 234 0
467 -175 234 0
-467 -175 -234 0
175 -468 0
467 -468 0
-175 -467 468 0
116 -469 0
57 -469 0
-116 -57 469 0
-468 294 0
-469 294 0
468 469 -294 0
58 117 -470 0
-58 117 470 0
58 -117 470 0
-58 -117 -470 0
470 176 -235 0
-470 176 235 0
470 -176 235 0
-470 -176 -235 0
176 -471 0
470 -471 0
-176 -470 471 0
117 -472 0
58 -472 0
-117 -58 472 0
-471 295 0
-472 295 0
471 472 -295 0
59 118 -473 0
-59 118 473 0
59 -118 473 0
-59 -118 -473 0
473 177 -236 0
-473 177 236 0
473 -177 236 0
-473 -177 -236 0
177 -474 0
473 -474 0
-177 -473 474 0
118 -475 0
59 -475 0
-118 -59 475 0
-474 296 0
-475 296 0
474 475 -296 0
